decision_x1=[0,4];
decision_x2=[0,4];
decision_x3=[0,4];
decision_x4=[0,4];
decision_x5=[0,4];
decision_x6=[0,4];
decision_x7=[0,4];
decision_x8=[0,4];
decision_x9=[0,4];
decision_x10=[0,4];
random_y1=[0,4];
random_y2=[0,4];
random_y3=[0,4];
random_y4=[0,4];
random_y5=[0,4];
constraint_x2_x1=[
0,1,4.9|
0,2,7.3|
0,3,8.4|
0,4,0.53|
1,0,6.7|
1,2,5.1|
1,3,1.8|
1,4,6.4|
2,0,9.6|
2,1,8.4|
2,3,0.44|
2,4,8.5|
3,0,4.2|
3,1,2.1|
3,2,4.7|
3,4,6.6|
4,0,9.9|
4,1,1.1|
4,2,9.7|
4,3,2.9|
];
constraint_x3_x2=[
0,1,0.0094|
0,2,7.7|
0,3,8.7|
0,4,8.9|
1,0,9.3|
1,2,9.4|
1,3,3.1|
1,4,1.7|
2,0,3.7|
2,1,1.7|
2,3,8.9|
2,4,0.37|
3,0,7.5|
3,1,9.6|
3,2,10|
3,4,1.1|
4,0,5|
4,1,2.5|
4,2,3.6|
4,3,0.52|
];
constraint_x4_x2=[
0,1,6.6|
0,2,7.4|
0,3,0.57|
0,4,2.3|
1,0,1.3|
1,2,0.42|
1,3,2.6|
1,4,6.4|
2,0,1.5|
2,1,5.9|
2,3,3.8|
2,4,0.61|
3,0,2.6|
3,1,6.9|
3,2,9.4|
3,4,3.3|
4,0,6|
4,1,1.7|
4,2,1.6|
4,3,4.1|
];
constraint_x5_x3=[
0,1,9.1|
0,2,3.2|
0,3,5.5|
0,4,5|
1,0,2.8|
1,2,0.26|
1,3,1.5|
1,4,6.4|
2,0,3.6|
2,1,3.3|
2,3,7.8|
2,4,6|
3,0,0.77|
3,1,4.4|
3,2,1.4|
3,4,6.5|
4,0,9.2|
4,1,1.1|
4,2,2.8|
4,3,4.4|
];
constraint_x5_x4=[
0,1,1.4|
0,2,0.5|
0,3,9.9|
0,4,3.4|
1,0,8.2|
1,2,9.4|
1,3,9.5|
1,4,5.8|
2,0,7.5|
2,1,6.7|
2,3,7.9|
2,4,2.7|
3,0,7.7|
3,1,3.4|
3,2,0.1|
3,4,8.1|
4,0,0.061|
4,1,2.5|
4,2,3|
4,3,3.6|
];
constraint_x6_x1=[
0,1,7.4|
0,2,0.1|
0,3,7.7|
0,4,1.3|
1,0,0.027|
1,2,2.1|
1,3,6|
1,4,2.7|
2,0,0.24|
2,1,1.1|
2,3,3.9|
2,4,1|
3,0,5.4|
3,1,1.5|
3,2,9.4|
3,4,0.16|
4,0,3.6|
4,1,1.5|
4,2,0.27|
4,3,9.7|
];
constraint_x6_x4=[
0,1,0.83|
0,2,8.7|
0,3,4|
0,4,5.4|
1,0,4|
1,2,6|
1,3,0.31|
1,4,2.7|
2,0,6.3|
2,1,4.7|
2,3,9.1|
2,4,5|
3,0,3.7|
3,1,2.8|
3,2,0.43|
3,4,2.2|
4,0,5.5|
4,1,8.8|
4,2,8.8|
4,3,4.9|
];
constraint_x6_x5=[
0,1,8.8|
0,2,1.5|
0,3,0.97|
0,4,3.6|
1,0,7.2|
1,2,8.5|
1,3,4.8|
1,4,6.2|
2,0,5.7|
2,1,8.5|
2,3,8.6|
2,4,2.9|
3,0,9.5|
3,1,9.3|
3,2,3.2|
3,4,2.6|
4,0,5.8|
4,1,7.6|
4,2,6.4|
4,3,4.4|
];
constraint_x7_x1=[
0,1,9.6|
0,2,2.3|
0,3,3|
0,4,7.7|
1,0,5.8|
1,2,8.9|
1,3,4.3|
1,4,4.4|
2,0,9.1|
2,1,5.8|
2,3,1.3|
2,4,0.7|
3,0,2.4|
3,1,3.2|
3,2,0.9|
3,4,4.8|
4,0,1.1|
4,1,5.3|
4,2,3.9|
4,3,8.6|
];
constraint_x7_x2=[
0,1,9.7|
0,2,7.1|
0,3,9.6|
0,4,7.3|
1,0,4.5|
1,2,6.5|
1,3,4.8|
1,4,4.9|
2,0,5.8|
2,1,4.5|
2,3,0.038|
2,4,6.7|
3,0,0.11|
3,1,4|
3,2,0.33|
3,4,8.8|
4,0,4.4|
4,1,3.2|
4,2,8.9|
4,3,9.1|
];
constraint_x7_x4=[
0,1,6|
0,2,7.1|
0,3,0.74|
0,4,6.4|
1,0,4.2|
1,2,3.4|
1,3,7.5|
1,4,7.5|
2,0,0.63|
2,1,2.6|
2,3,1.8|
2,4,2.6|
3,0,0.39|
3,1,7.3|
3,2,6.7|
3,4,4.7|
4,0,4.6|
4,1,2.4|
4,2,7.3|
4,3,9.7|
];
constraint_x7_x5=[
0,1,1.2|
0,2,7.5|
0,3,6.5|
0,4,6.8|
1,0,8.6|
1,2,5.6|
1,3,1.6|
1,4,8.3|
2,0,2.1|
2,1,3|
2,3,7.2|
2,4,3.6|
3,0,8.5|
3,1,1.6|
3,2,2.5|
3,4,6.6|
4,0,1.4|
4,1,9.4|
4,2,5.4|
4,3,3.9|
];
constraint_x8_x2=[
0,1,1.9|
0,2,9.2|
0,3,5.9|
0,4,3.3|
1,0,2|
1,2,1.8|
1,3,7.6|
1,4,6|
2,0,9.4|
2,1,7|
2,3,7.1|
2,4,0.98|
3,0,6.7|
3,1,5.3|
3,2,6.1|
3,4,2.3|
4,0,7.1|
4,1,4|
4,2,3.7|
4,3,8.6|
];
constraint_x8_x3=[
0,1,4.4|
0,2,9.4|
0,3,5.9|
0,4,4.8|
1,0,5.6|
1,2,6.2|
1,3,9.6|
1,4,1.7|
2,0,0.83|
2,1,2.8|
2,3,3.8|
2,4,2|
3,0,3.3|
3,1,4.8|
3,2,8.8|
3,4,1.4|
4,0,3|
4,1,5.7|
4,2,1.6|
4,3,0.29|
];
constraint_x8_x5=[
0,1,3.6|
0,2,6.1|
0,3,4.9|
0,4,8.1|
1,0,5.8|
1,2,6.5|
1,3,4.1|
1,4,6.9|
2,0,2.6|
2,1,4.2|
2,3,5.1|
2,4,6.2|
3,0,4.5|
3,1,0.2|
3,2,2.2|
3,4,1.2|
4,0,6.6|
4,1,0.63|
4,2,8.7|
4,3,4.8|
];
constraint_x8_x7=[
0,1,6.3|
0,2,9.4|
0,3,5.9|
0,4,9.8|
1,0,2.9|
1,2,8.6|
1,3,6.5|
1,4,0.21|
2,0,0.27|
2,1,5.5|
2,3,0.24|
2,4,7.5|
3,0,1.3|
3,1,2.1|
3,2,0.11|
3,4,6.8|
4,0,9.3|
4,1,0.29|
4,2,4.1|
4,3,9.2|
];
constraint_x9_x3=[
0,1,6.8|
0,2,7.9|
0,3,4.8|
0,4,4.6|
1,0,9.5|
1,2,5|
1,3,8.6|
1,4,5.3|
2,0,2.9|
2,1,2.7|
2,3,2.1|
2,4,7.1|
3,0,0.043|
3,1,3.8|
3,2,3.4|
3,4,8.4|
4,0,1.9|
4,1,2.7|
4,2,1.9|
4,3,8.7|
];
constraint_x9_x7=[
0,1,3.6|
0,2,5.6|
0,3,7.3|
0,4,5.5|
1,0,6.5|
1,2,3.4|
1,3,6.9|
1,4,6.7|
2,0,3.9|
2,1,4.7|
2,3,7.3|
2,4,2.9|
3,0,9.9|
3,1,3.6|
3,2,4.1|
3,4,4.9|
4,0,3.7|
4,1,4.8|
4,2,4|
4,3,8.6|
];
constraint_x9_x8=[
0,1,8.1|
0,2,1.5|
0,3,4.5|
0,4,6.8|
1,0,9.1|
1,2,5.7|
1,3,6.6|
1,4,3.3|
2,0,6.1|
2,1,5.5|
2,3,5.9|
2,4,3.7|
3,0,6.2|
3,1,5.9|
3,2,7.6|
3,4,2.9|
4,0,0.49|
4,1,4.7|
4,2,8.5|
4,3,9.9|
];
constraint_x10_x2=[
0,1,7.5|
0,2,4.8|
0,3,3.5|
0,4,8.8|
1,0,2.7|
1,2,3.2|
1,3,5.7|
1,4,7.3|
2,0,9.9|
2,1,8|
2,3,8.7|
2,4,3.3|
3,0,4.9|
3,1,3.8|
3,2,0.77|
3,4,0.49|
4,0,7.4|
4,1,3.8|
4,2,4.7|
4,3,4.2|
];
constraint_x10_x4=[
0,1,4.4|
0,2,8|
0,3,5.7|
0,4,0.53|
1,0,4|
1,2,8.4|
1,3,3.4|
1,4,0.81|
2,0,7.2|
2,1,9.4|
2,3,4.9|
2,4,4.8|
3,0,5.3|
3,1,3.4|
3,2,8|
3,4,1.7|
4,0,7.4|
4,1,9|
4,2,1.6|
4,3,7.2|
];
constraint_x10_x6=[
0,1,9.2|
0,2,7.8|
0,3,7.9|
0,4,0.66|
1,0,1.8|
1,2,9.5|
1,3,4.4|
1,4,2.4|
2,0,6.7|
2,1,3.9|
2,3,1.1|
2,4,2|
3,0,7.7|
3,1,7.5|
3,2,2.9|
3,4,2.2|
4,0,1.4|
4,1,3.6|
4,2,9|
4,3,0.49|
];
constraint_x10_x8=[
0,1,4.5|
0,2,5.4|
0,3,5.5|
0,4,2.8|
1,0,7.6|
1,2,4.7|
1,3,4.5|
1,4,3.7|
2,0,9.4|
2,1,6.1|
2,3,1.4|
2,4,4.2|
3,0,4.2|
3,1,6.2|
3,2,2.4|
3,4,8.6|
4,0,9.3|
4,1,4.2|
4,2,1.5|
4,3,3.8|
];
constraint_x1_y1=[
0,0,6.1|
0,1,6.9|
0,2,0.24|
0,3,6.2|
0,4,3.3|
1,0,7.1|
1,1,0.34|
1,2,1.3|
1,3,3.3|
1,4,4|
2,0,1.4|
2,1,2.4|
2,2,4|
2,3,4.6|
2,4,2.9|
3,0,5.5|
3,1,5.1|
3,2,6.4|
3,3,0.61|
3,4,4.5|
4,0,4.8|
4,1,9|
4,2,9.4|
4,3,6.9|
4,4,1.4|
];
constraint_x2_y2=[
0,0,4.5|
0,1,4.5|
0,2,9.1|
0,3,2.3|
0,4,1.5|
1,0,9|
1,1,6.3|
1,2,9.5|
1,3,2.5|
1,4,8.8|
2,0,3.2|
2,1,1.2|
2,2,7.1|
2,3,3.7|
2,4,1|
3,0,0.2|
3,1,3.3|
3,2,6.7|
3,3,7.1|
3,4,2.8|
4,0,2.3|
4,1,4|
4,2,9.5|
4,3,1.9|
4,4,5.4|
];
constraint_x3_y3=[
0,0,8.4|
0,1,1.1|
0,2,5.3|
0,3,5.5|
0,4,6.1|
1,0,9.9|
1,1,2.3|
1,2,3.7|
1,3,5.5|
1,4,8.5|
2,0,3.2|
2,1,3.4|
2,2,1|
2,3,5.4|
2,4,4.8|
3,0,9.8|
3,1,8.7|
3,2,1.4|
3,3,0.85|
3,4,1.8|
4,0,4.4|
4,1,0.42|
4,2,3.8|
4,3,5.3|
4,4,5|
];
constraint_x4_y4=[
0,0,2.8|
0,1,2.8|
0,2,6.7|
0,3,9.5|
0,4,0.81|
1,0,0.091|
1,1,6|
1,2,6.1|
1,3,3.6|
1,4,9.1|
2,0,8.8|
2,1,4.9|
2,2,9.5|
2,3,9.7|
2,4,0.91|
3,0,7.9|
3,1,3.3|
3,2,6.8|
3,3,9.4|
3,4,6.7|
4,0,9.9|
4,1,1.6|
4,2,5.7|
4,3,1.2|
4,4,9.9|
];
constraint_x5_y5=[
0,0,0.87|
0,1,9.7|
0,2,2.4|
0,3,8.5|
0,4,3|
1,0,9.8|
1,1,2.3|
1,2,4.8|
1,3,9.4|
1,4,5.9|
2,0,5|
2,1,7.5|
2,2,7.1|
2,3,0.7|
2,4,9.1|
3,0,8.3|
3,1,5.4|
3,2,0.61|
3,3,4.7|
3,4,9.5|
4,0,9.3|
4,1,2.2|
4,2,6.1|
4,3,2.3|
4,4,8.4|
];
initial_distribution_y1=[0.0089,0.38,0.34,0.25,0.025];
initial_distribution_y2=[0.0074,0.24,0.27,0.15,0.32];
initial_distribution_y3=[0.22,0.24,0.21,0.13,0.19];
initial_distribution_y4=[0.19,0.43,0.16,0.099,0.12];
initial_distribution_y5=[0.004,0.28,0.27,0.18,0.27];
transition_y1=[
0.3,0.2,0.16,0.2,0.13|
0.27,0.19,0.007,0.24,0.29|
0.22,0.18,0.19,0.16,0.25|
0.075,0.24,0.37,0.28,0.037|
0.24,0.36,0.14,0.016,0.24|
];
transition_y2=[
0.28,0.16,0.3,0.16,0.095|
0.25,0.093,0.043,0.31,0.31|
0.33,0.099,0.25,0.11,0.21|
0.067,0.45,0.26,0.19,0.029|
0.27,0.23,0.21,0.2,0.087|
];
transition_y3=[
0.24,0.27,0.39,0.073,0.026|
0.24,0.3,0.16,0.26,0.039|
0.43,0.13,0.23,0.031,0.18|
0.2,0.29,0.13,0.2,0.17|
0.3,0.092,0.27,0.3,0.045|
];
transition_y4=[
0.24,0.15,0.21,0.21,0.19|
0.17,0.24,0.15,0.23,0.2|
0.23,0.14,0.19,0.11,0.33|
0.18,0.27,0.16,0.28,0.11|
0.16,0.31,0.13,0.17,0.23|
];
transition_y5=[
0.1,0.2,0.2,0.38,0.11|
0.18,0.2,0.03,0.33,0.25|
0.023,0.29,0.25,0.17,0.27|
0.061,0.1,0.33,0.24,0.27|
0.11,0.073,0.48,0.31,0.016|
];
